(set-logic QF_S)
(declare-fun var0 () String)
(assert (str.in.re var0 (re.++ (re.+ (re.* (str.to.re "0"))) (re.++ (re.* (re.+ (str.to.re "1"))) (re.++ (re.* (re.union (str.to.re "222") (str.to.re "333"))) (re.++ (re.union (re.* (str.to.re "4")) (re.union (str.to.re "555") (str.to.re "6"))) (re.++ (re.+ (re.* (str.to.re "777"))) (re.++ (re.union (re.union (str.to.re "8") (str.to.re "99")) (re.* (str.to.re "a"))) (re.++ (re.+ (re.union (str.to.re "bbb") (str.to.re "ccc"))) (re.++ (re.union (re.+ (str.to.re "ddd")) (re.union (str.to.re "ee") (str.to.re "ff"))) (re.++ (re.* (re.+ (str.to.re "g"))) (re.++ (re.* (re.union (str.to.re "h") (str.to.re "i"))) (re.++ (re.+ (re.union (str.to.re "jj") (str.to.re "kkk"))) (re.++ (re.union (re.* (str.to.re "lll")) (re.* (str.to.re "mm"))) (re.++ (re.* (re.* (str.to.re "nnn"))) (re.++ (re.* (re.* (str.to.re "ooo"))) (re.++ (re.union (re.* (str.to.re "ppp")) (re.* (str.to.re "qq"))) (re.++ (re.+ (re.* (str.to.re "r"))) (re.++ (re.union (re.union (str.to.re "s") (str.to.re "t")) (re.union (str.to.re "u") (str.to.re "v"))) (re.++ (re.* (re.union (str.to.re "w") (str.to.re "x"))) (re.++ (re.* (re.* (str.to.re "y"))) (re.++ (re.union (re.* (str.to.re "zz")) (re.union (str.to.re "AAA") (str.to.re "BB"))) (re.++ (re.* (re.+ (str.to.re "CC"))) (re.++ (re.+ (re.* (str.to.re "D"))) (re.++ (re.+ (re.union (str.to.re "EE") (str.to.re "FFF"))) (re.++ (re.* (re.+ (str.to.re "GGG"))) (re.* (re.* (str.to.re "H")))))))))))))))))))))))))))))
(check-sat)